\ Model MTZ_MODEL
\ LP format - for model browsing. Use MPS format to capture full model detail.
Minimize
  p[0,1] + p[0,2] + p[0,3] + p[0,4] + p[1,0] + p[1,2] + p[1,3] + p[1,4]
   + p[2,0] + p[2,1] + p[2,3] + p[2,4] + p[3,0] + p[3,1] + p[3,2] + p[3,4]
   + p[4,0] + p[4,1] + p[4,2] + p[4,3] + dc[0] + dc[1] + dc[2] + dc[3]
   + dc[4] + 0 difc[0,0] + 0 difc[0,1] + 0 difc[1,0] + 0 difc[1,1]
   + 0 difc[2,0] + 0 difc[2,1] + 0 difc[3,0] + 0 difc[3,1] + 0 difc[4,0]
   + 0 difc[4,1]
Subject To
 p2: p[0,1] - 30.80897034153925 z[0,1] >= 0
 p3: p[0,1] - 45.75558269137323 z[0,1] - dcc[0,1] >= -45.75558269137323
 R2: dcc[0,1] <= 45.75558269137323
 R3: x[0,1,0] - x[1,0,0] + dif[0,1,0] >= 0
 R4: - x[0,1,0] + x[1,0,0] + dif[0,1,0] >= 0
 R5: x[0,1,1] - x[1,0,1] + dif[0,1,1] >= 0
 R6: - x[0,1,1] + x[1,0,1] + dif[0,1,1] >= 0
 p2: p[0,2] - 8.614590416881228 z[0,2] >= 0
 p3: p[0,2] - 21.27015611022656 z[0,2] - dcc[0,2] >= -21.27015611022656
 R9: dcc[0,2] <= 21.27015611022656
 R10: x[0,1,0] - x[2,0,0] + dif[0,2,0] >= 0
 R11: - x[0,1,0] + x[2,0,0] + dif[0,2,0] >= 0
 R12: x[0,1,1] - x[2,0,1] + dif[0,2,1] >= 0
 R13: - x[0,1,1] + x[2,0,1] + dif[0,2,1] >= 0
 p2: p[0,3] - 42.49547059063294 z[0,3] >= 0
 p3: p[0,3] - 55.56355421166427 z[0,3] - dcc[0,3] >= -55.56355421166427
 R16: dcc[0,3] <= 55.56355421166427
 R17: x[0,1,0] - x[3,0,0] + dif[0,3,0] >= 0
 R18: - x[0,1,0] + x[3,0,0] + dif[0,3,0] >= 0
 R19: x[0,1,1] - x[3,0,1] + dif[0,3,1] >= 0
 R20: - x[0,1,1] + x[3,0,1] + dif[0,3,1] >= 0
 p2: p[0,4] - 52.12815567152659 z[0,4] >= 0
 p3: p[0,4] - 65.34155732058088 z[0,4] - dcc[0,4] >= -65.34155732058088
 R23: dcc[0,4] <= 65.34155732058088
 R24: x[0,1,0] - x[4,0,0] + dif[0,4,0] >= 0
 R25: - x[0,1,0] + x[4,0,0] + dif[0,4,0] >= 0
 R26: x[0,1,1] - x[4,0,1] + dif[0,4,1] >= 0
 R27: - x[0,1,1] + x[4,0,1] + dif[0,4,1] >= 0
 p2: p[1,0] - 30.80897034153925 z[1,0] >= 0
 p3: p[1,0] - 45.75558269137323 z[1,0] - dcc[1,0] >= -45.75558269137323
 R30: dcc[1,0] <= 45.75558269137323
 R31: - x[0,0,0] + x[1,1,0] + dif[1,0,0] >= 0
 R32: x[0,0,0] - x[1,1,0] + dif[1,0,0] >= 0
 R33: - x[0,0,1] + x[1,1,1] + dif[1,0,1] >= 0
 R34: x[0,0,1] - x[1,1,1] + dif[1,0,1] >= 0
 p2: p[1,2] - 16.02317147157677 z[1,2] >= 0
 p3: p[1,2] - 36.53485615979729 z[1,2] - dcc[1,2] >= -36.53485615979729
 R37: dcc[1,2] <= 36.53485615979729
 R38: x[1,1,0] - x[2,0,0] + dif[1,2,0] >= 0
 R39: - x[1,1,0] + x[2,0,0] + dif[1,2,0] >= 0
 R40: x[1,1,1] - x[2,0,1] + dif[1,2,1] >= 0
 R41: - x[1,1,1] + x[2,0,1] + dif[1,2,1] >= 0
 p2: p[1,3] - 5.349036162930391 z[1,3] >= 0
 p3: p[1,3] - 29.21765998313197 z[1,3] - dcc[1,3] >= -29.21765998313197
 R44: dcc[1,3] <= 29.21765998313197
 R45: x[1,1,0] - x[3,0,0] + dif[1,3,0] >= 0
 R46: - x[1,1,0] + x[3,0,0] + dif[1,3,0] >= 0
 R47: x[1,1,1] - x[3,0,1] + dif[1,3,1] >= 0
 R48: - x[1,1,1] + x[3,0,1] + dif[1,3,1] >= 0
 p2: p[1,4] - 17.61747117367414 z[1,4] >= 0
 p3: p[1,4] - 43.58664330333875 z[1,4] - dcc[1,4] >= -43.58664330333875
 R51: dcc[1,4] <= 43.58664330333875
 R52: x[1,1,0] - x[4,0,0] + dif[1,4,0] >= 0
 R53: - x[1,1,0] + x[4,0,0] + dif[1,4,0] >= 0
 R54: x[1,1,1] - x[4,0,1] + dif[1,4,1] >= 0
 R55: - x[1,1,1] + x[4,0,1] + dif[1,4,1] >= 0
 p2: p[2,0] - 8.614590416881228 z[2,0] >= 0
 p3: p[2,0] - 21.27015611022656 z[2,0] - dcc[2,0] >= -21.27015611022656
 R58: dcc[2,0] <= 21.27015611022656
 R59: - x[0,0,0] + x[2,1,0] + dif[2,0,0] >= 0
 R60: x[0,0,0] - x[2,1,0] + dif[2,0,0] >= 0
 R61: - x[0,0,1] + x[2,1,1] + dif[2,0,1] >= 0
 R62: x[0,0,1] - x[2,1,1] + dif[2,0,1] >= 0
 p2: p[2,1] - 16.02317147157677 z[2,1] >= 0
 p3: p[2,1] - 36.53485615979729 z[2,1] - dcc[2,1] >= -36.53485615979729
 R65: dcc[2,1] <= 36.53485615979729
 R66: - x[1,0,0] + x[2,1,0] + dif[2,1,0] >= 0
 R67: x[1,0,0] - x[2,1,0] + dif[2,1,0] >= 0
 R68: - x[1,0,1] + x[2,1,1] + dif[2,1,1] >= 0
 R69: x[1,0,1] - x[2,1,1] + dif[2,1,1] >= 0
 p2: p[2,3] - 25.72865377211846 z[2,3] >= 0
 p3: p[2,3] - 44.78175252516309 z[2,3] - dcc[2,3] >= -44.78175252516309
 R72: dcc[2,3] <= 44.78175252516309
 R73: x[2,1,0] - x[3,0,0] + dif[2,3,0] >= 0
 R74: - x[2,1,0] + x[3,0,0] + dif[2,3,0] >= 0
 R75: x[2,1,1] - x[3,0,1] + dif[2,3,1] >= 0
 R76: - x[2,1,1] + x[3,0,1] + dif[2,3,1] >= 0
 p2: p[2,4] - 43.26934620510587 z[2,4] >= 0
 p3: p[2,4] - 60.42758475913 z[2,4] - dcc[2,4] >= -60.42758475913
 R79: dcc[2,4] <= 60.42758475913
 R80: x[2,1,0] - x[4,0,0] + dif[2,4,0] >= 0
 R81: - x[2,1,0] + x[4,0,0] + dif[2,4,0] >= 0
 R82: x[2,1,1] - x[4,0,1] + dif[2,4,1] >= 0
 R83: - x[2,1,1] + x[4,0,1] + dif[2,4,1] >= 0
 p2: p[3,0] - 42.49547059063294 z[3,0] >= 0
 p3: p[3,0] - 55.56355421166427 z[3,0] - dcc[3,0] >= -55.56355421166427
 R86: dcc[3,0] <= 55.56355421166427
 R87: - x[0,0,0] + x[3,1,0] + dif[3,0,0] >= 0
 R88: x[0,0,0] - x[3,1,0] + dif[3,0,0] >= 0
 R89: - x[0,0,1] + x[3,1,1] + dif[3,0,1] >= 0
 R90: x[0,0,1] - x[3,1,1] + dif[3,0,1] >= 0
 p2: p[3,1] - 5.349036162930391 z[3,1] >= 0
 p3: p[3,1] - 29.21765998313197 z[3,1] - dcc[3,1] >= -29.21765998313197
 R93: dcc[3,1] <= 29.21765998313197
 R94: - x[1,0,0] + x[3,1,0] + dif[3,1,0] >= 0
 R95: x[1,0,0] - x[3,1,0] + dif[3,1,0] >= 0
 R96: - x[1,0,1] + x[3,1,1] + dif[3,1,1] >= 0
 R97: x[1,0,1] - x[3,1,1] + dif[3,1,1] >= 0
 p2: p[3,2] - 25.72865377211846 z[3,2] >= 0
 p3: p[3,2] - 44.78175252516309 z[3,2] - dcc[3,2] >= -44.78175252516309
 R100: dcc[3,2] <= 44.78175252516309
 R101: - x[2,0,0] + x[3,1,0] + dif[3,2,0] >= 0
 R102: x[2,0,0] - x[3,1,0] + dif[3,2,0] >= 0
 R103: - x[2,0,1] + x[3,1,1] + dif[3,2,1] >= 0
 R104: x[2,0,1] - x[3,1,1] + dif[3,2,1] >= 0
 p2: p[3,4] - 29.24502351090358 z[3,4] >= 0
 p3: p[3,4] - 51.25122875475492 z[3,4] - dcc[3,4] >= -51.25122875475492
 R107: dcc[3,4] <= 51.25122875475492
 R108: x[3,1,0] - x[4,0,0] + dif[3,4,0] >= 0
 R109: - x[3,1,0] + x[4,0,0] + dif[3,4,0] >= 0
 R110: x[3,1,1] - x[4,0,1] + dif[3,4,1] >= 0
 R111: - x[3,1,1] + x[4,0,1] + dif[3,4,1] >= 0
 p2: p[4,0] - 52.12815567152659 z[4,0] >= 0
 p3: p[4,0] - 65.34155732058088 z[4,0] - dcc[4,0] >= -65.34155732058088
 R114: dcc[4,0] <= 65.34155732058088
 R115: - x[0,0,0] + x[4,1,0] + dif[4,0,0] >= 0
 R116: x[0,0,0] - x[4,1,0] + dif[4,0,0] >= 0
 R117: - x[0,0,1] + x[4,1,1] + dif[4,0,1] >= 0
 R118: x[0,0,1] - x[4,1,1] + dif[4,0,1] >= 0
 p2: p[4,1] - 17.61747117367414 z[4,1] >= 0
 p3: p[4,1] - 43.58664330333875 z[4,1] - dcc[4,1] >= -43.58664330333875
 R121: dcc[4,1] <= 43.58664330333875
 R122: - x[1,0,0] + x[4,1,0] + dif[4,1,0] >= 0
 R123: x[1,0,0] - x[4,1,0] + dif[4,1,0] >= 0
 R124: - x[1,0,1] + x[4,1,1] + dif[4,1,1] >= 0
 R125: x[1,0,1] - x[4,1,1] + dif[4,1,1] >= 0
 p2: p[4,2] - 43.26934620510587 z[4,2] >= 0
 p3: p[4,2] - 60.42758475913 z[4,2] - dcc[4,2] >= -60.42758475913
 R128: dcc[4,2] <= 60.42758475913
 R129: - x[2,0,0] + x[4,1,0] + dif[4,2,0] >= 0
 R130: x[2,0,0] - x[4,1,0] + dif[4,2,0] >= 0
 R131: - x[2,0,1] + x[4,1,1] + dif[4,2,1] >= 0
 R132: x[2,0,1] - x[4,1,1] + dif[4,2,1] >= 0
 p2: p[4,3] - 29.24502351090358 z[4,3] >= 0
 p3: p[4,3] - 51.25122875475492 z[4,3] - dcc[4,3] >= -51.25122875475492
 R135: dcc[4,3] <= 51.25122875475492
 R136: - x[3,0,0] + x[4,1,0] + dif[4,3,0] >= 0
 R137: x[3,0,0] - x[4,1,0] + dif[4,3,0] >= 0
 R138: - x[3,0,1] + x[4,1,1] + dif[4,3,1] >= 0
 R139: x[3,0,1] - x[4,1,1] + dif[4,3,1] >= 0
 R140: z[0,1] + z[0,2] + z[0,3] + z[0,4] = 1
 R141: z[1,0] + z[1,2] + z[1,3] + z[1,4] = 1
 R142: z[2,0] + z[2,1] + z[2,3] + z[2,4] = 1
 R143: z[3,0] + z[3,1] + z[3,2] + z[3,4] = 1
 R144: z[4,0] + z[4,1] + z[4,2] + z[4,3] = 1
 R145: z[1,0] + z[2,0] + z[3,0] + z[4,0] = 1
 R146: z[0,1] + z[2,1] + z[3,1] + z[4,1] = 1
 R147: z[0,2] + z[1,2] + z[3,2] + z[4,2] = 1
 R148: z[0,3] + z[1,3] + z[2,3] + z[4,3] = 1
 R149: z[0,4] + z[1,4] + z[2,4] + z[3,4] = 1
 rest7: z[0,1] + z[1,0] <= 1
 rest7: z[0,2] + z[2,0] <= 1
 rest7: z[0,3] + z[3,0] <= 1
 rest7: z[0,4] + z[4,0] <= 1
 rest7: z[0,1] + z[1,0] <= 1
 rest7: z[1,2] + z[2,1] <= 1
 rest7: z[1,3] + z[3,1] <= 1
 rest7: z[1,4] + z[4,1] <= 1
 rest7: z[0,2] + z[2,0] <= 1
 rest7: z[1,2] + z[2,1] <= 1
 rest7: z[2,3] + z[3,2] <= 1
 rest7: z[2,4] + z[4,2] <= 1
 rest7: z[0,3] + z[3,0] <= 1
 rest7: z[1,3] + z[3,1] <= 1
 rest7: z[2,3] + z[3,2] <= 1
 rest7: z[3,4] + z[4,3] <= 1
 rest7: z[0,4] + z[4,0] <= 1
 rest7: z[1,4] + z[4,1] <= 1
 rest7: z[2,4] + z[4,2] <= 1
 rest7: z[3,4] + z[4,3] <= 1
 R170: 5 z[1,2] + sc[1] - sc[2] <= 4
 R171: 5 z[1,3] + sc[1] - sc[3] <= 4
 R172: 5 z[1,4] + sc[1] - sc[4] <= 4
 R173: 5 z[2,1] - sc[1] + sc[2] <= 4
 R174: 5 z[2,3] + sc[2] - sc[3] <= 4
 R175: 5 z[2,4] + sc[2] - sc[4] <= 4
 R176: 5 z[3,1] - sc[1] + sc[3] <= 4
 R177: 5 z[3,2] - sc[2] + sc[3] <= 4
 R178: 5 z[3,4] + sc[3] - sc[4] <= 4
 R179: 5 z[4,1] - sc[1] + sc[4] <= 4
 R180: 5 z[4,2] - sc[2] + sc[4] <= 4
 R181: 5 z[4,3] - sc[3] + sc[4] <= 4
 rest10: sc[0] = 0
 rest11: sc[1] >= 1
 rest11: sc[2] >= 1
 rest11: sc[3] >= 1
 rest11: sc[4] >= 1
 u0: landa[0,0] - landa[0,1] + min[0] - max[0] = 0
 u1: min[0] + max[0] = 1
 u2: u[0] + max[0] <= 1
 u3: - u[0] + min[0] <= 0
 R191: dc[0] = 8.205886547151712
 R192: landa[0,0] - sublanda[0,0,1] - 2 s[0,0,0] >= -1
 R193: landa[0,0] - sublanda[0,0,1] + 2 s[0,0,0] <= 3
 R194: sublanda[0,0,0] - s[0,0,0] <= 0
 R195: sublanda[0,0,1] - s[0,0,0] <= 0
 R196: s[0,0,0] = 1
 R197: sublanda[0,0,0] + sublanda[0,0,1] = 1
 seg1: x[0,0,0] - 52.85994248589952 sublanda[0,0,0]
   - 44.69476223138857 sublanda[0,0,1] = 0
 seg1: x[0,0,1] - 77.31735227663826 sublanda[0,0,0]
   - 76.50101568180142 sublanda[0,0,1] = 0
 R200: landa[0,1] - sublanda[0,1,1] - 2 s[0,1,0] >= -1
 R201: landa[0,1] - sublanda[0,1,1] + 2 s[0,1,0] <= 3
 R202: sublanda[0,1,0] - s[0,1,0] <= 0
 R203: sublanda[0,1,1] - s[0,1,0] <= 0
 R204: s[0,1,0] = 1
 R205: sublanda[0,1,0] + sublanda[0,1,1] = 1
 seg1: x[0,1,0] - 52.85994248589952 sublanda[0,1,0]
   - 44.69476223138857 sublanda[0,1,1] = 0
 seg1: x[0,1,1] - 77.31735227663826 sublanda[0,1,0]
   - 76.50101568180142 sublanda[0,1,1] = 0
 u0: landa[1,0] - landa[1,1] + min[1] - max[1] = 0
 u1: min[1] + max[1] = 3
 u2: 3 u[1] + max[1] <= 3
 u3: - 3 u[1] + min[1] <= 0
 R212: dc[1] = 29.28983590405247
 R213: landa[1,0] - sublanda[1,0,1] - 4 s[1,0,0] >= -3
 R214: landa[1,0] - sublanda[1,0,1] + 4 s[1,0,0] <= 5
 R215: landa[1,0] - sublanda[1,0,2] - 4 s[1,0,1] >= -2
 R216: landa[1,0] - sublanda[1,0,2] + 4 s[1,0,1] <= 6
 R217: landa[1,0] - sublanda[1,0,3] - 4 s[1,0,2] >= -1
 R218: landa[1,0] - sublanda[1,0,3] + 4 s[1,0,2] <= 7
 R219: sublanda[1,0,0] - s[1,0,0] <= 0
 R220: sublanda[1,0,3] - s[1,0,2] <= 0
 R221: sublanda[1,0,1] - s[1,0,0] - s[1,0,1] <= 0
 R222: sublanda[1,0,2] - s[1,0,1] - s[1,0,2] <= 0
 R223: s[1,0,0] + s[1,0,1] + s[1,0,2] = 1
 R224: sublanda[1,0,0] + sublanda[1,0,1] + sublanda[1,0,2]
   + sublanda[1,0,3] = 1
 seg1: x[1,0,0] - 61.71684976263549 sublanda[1,0,0]
   - 52.36983464359053 sublanda[1,0,1] - 53.71473427596316 sublanda[1,0,2]
   - 63.47665483150163 sublanda[1,0,3] = 0
 seg1: x[1,0,1] - 34.02959136490734 sublanda[1,0,0]
   - 36.85003779461046 sublanda[1,0,1] - 46.52024227421295 sublanda[1,0,2]
   - 46.68308196788603 sublanda[1,0,3] = 0
 R227: landa[1,1] - sublanda[1,1,1] - 4 s[1,1,0] >= -3
 R228: landa[1,1] - sublanda[1,1,1] + 4 s[1,1,0] <= 5
 R229: landa[1,1] - sublanda[1,1,2] - 4 s[1,1,1] >= -2
 R230: landa[1,1] - sublanda[1,1,2] + 4 s[1,1,1] <= 6
 R231: landa[1,1] - sublanda[1,1,3] - 4 s[1,1,2] >= -1
 R232: landa[1,1] - sublanda[1,1,3] + 4 s[1,1,2] <= 7
 R233: sublanda[1,1,0] - s[1,1,0] <= 0
 R234: sublanda[1,1,3] - s[1,1,2] <= 0
 R235: sublanda[1,1,1] - s[1,1,0] - s[1,1,1] <= 0
 R236: sublanda[1,1,2] - s[1,1,1] - s[1,1,2] <= 0
 R237: s[1,1,0] + s[1,1,1] + s[1,1,2] = 1
 R238: sublanda[1,1,0] + sublanda[1,1,1] + sublanda[1,1,2]
   + sublanda[1,1,3] = 1
 seg1: x[1,1,0] - 61.71684976263549 sublanda[1,1,0]
   - 52.36983464359053 sublanda[1,1,1] - 53.71473427596316 sublanda[1,1,2]
   - 63.47665483150163 sublanda[1,1,3] = 0
 seg1: x[1,1,1] - 34.02959136490734 sublanda[1,1,0]
   - 36.85003779461046 sublanda[1,1,1] - 46.52024227421295 sublanda[1,1,2]
   - 46.68308196788603 sublanda[1,1,3] = 0
 u0: landa[2,0] - landa[2,1] + min[2] - max[2] = 0
 u1: min[2] + max[2] = 2
 u2: 2 u[2] + max[2] <= 2
 u3: - 2 u[2] + min[2] <= 0
 R245: dc[2] = 11.0110999837665
 R246: landa[2,0] - sublanda[2,0,1] - 3 s[2,0,0] >= -2
 R247: landa[2,0] - sublanda[2,0,1] + 3 s[2,0,0] <= 4
 R248: landa[2,0] - sublanda[2,0,2] - 3 s[2,0,1] >= -1
 R249: landa[2,0] - sublanda[2,0,2] + 3 s[2,0,1] <= 5
 R250: sublanda[2,0,0] - s[2,0,0] <= 0
 R251: sublanda[2,0,2] - s[2,0,1] <= 0
 R252: sublanda[2,0,1] - s[2,0,0] - s[2,0,1] <= 0
 R253: s[2,0,0] + s[2,0,1] = 1
 R254: sublanda[2,0,0] + sublanda[2,0,1] + sublanda[2,0,2] = 1
 seg1: x[2,0,0] - 57.95379624465195 sublanda[2,0,0]
   - 62.69835227964123 sublanda[2,0,1] - 60.67073723653122 sublanda[2,0,2]
   = 0
 seg1: x[2,0,1] - 70.37013542849931 sublanda[2,0,0]
   - 67.57723930727094 sublanda[2,0,1] - 62.45865962633604 sublanda[2,0,2]
   = 0
 R257: landa[2,1] - sublanda[2,1,1] - 3 s[2,1,0] >= -2
 R258: landa[2,1] - sublanda[2,1,1] + 3 s[2,1,0] <= 4
 R259: landa[2,1] - sublanda[2,1,2] - 3 s[2,1,1] >= -1
 R260: landa[2,1] - sublanda[2,1,2] + 3 s[2,1,1] <= 5
 R261: sublanda[2,1,0] - s[2,1,0] <= 0
 R262: sublanda[2,1,2] - s[2,1,1] <= 0
 R263: sublanda[2,1,1] - s[2,1,0] - s[2,1,1] <= 0
 R264: s[2,1,0] + s[2,1,1] = 1
 R265: sublanda[2,1,0] + sublanda[2,1,1] + sublanda[2,1,2] = 1
 seg1: x[2,1,0] - 57.95379624465195 sublanda[2,1,0]
   - 62.69835227964123 sublanda[2,1,1] - 60.67073723653122 sublanda[2,1,2]
   = 0
 seg1: x[2,1,1] - 70.37013542849931 sublanda[2,1,0]
   - 67.57723930727094 sublanda[2,1,1] - 62.45865962633604 sublanda[2,1,2]
   = 0
 u0: landa[3,0] - landa[3,1] + min[3] - max[3] = 0
 u1: min[3] + max[3] = 3
 u2: 3 u[3] + max[3] <= 3
 u3: - 3 u[3] + min[3] <= 0
 R272: dc[3] = 26.37847182631235
 R273: landa[3,0] - sublanda[3,0,1] - 4 s[3,0,0] >= -3
 R274: landa[3,0] - sublanda[3,0,1] + 4 s[3,0,0] <= 5
 R275: landa[3,0] - sublanda[3,0,2] - 4 s[3,0,1] >= -2
 R276: landa[3,0] - sublanda[3,0,2] + 4 s[3,0,1] <= 6
 R277: landa[3,0] - sublanda[3,0,3] - 4 s[3,0,2] >= -1
 R278: landa[3,0] - sublanda[3,0,3] + 4 s[3,0,2] <= 7
 R279: sublanda[3,0,0] - s[3,0,0] <= 0
 R280: sublanda[3,0,3] - s[3,0,2] <= 0
 R281: sublanda[3,0,1] - s[3,0,0] - s[3,0,1] <= 0
 R282: sublanda[3,0,2] - s[3,0,1] - s[3,0,2] <= 0
 R283: s[3,0,0] + s[3,0,1] + s[3,0,2] = 1
 R284: sublanda[3,0,0] + sublanda[3,0,1] + sublanda[3,0,2]
   + sublanda[3,0,3] = 1
 seg1: x[3,0,0] - 70.88021962862706 sublanda[3,0,0]
   - 66.90368832729264 sublanda[3,0,1] - 74.03869780949165 sublanda[3,0,2]
   - 80.21640022600778 sublanda[3,0,3] = 0
 seg1: x[3,0,1] - 27.49458368017573 sublanda[3,0,0]
   - 35.33683792792536 sublanda[3,0,1] - 40.47545569594134 sublanda[3,0,2]
   - 34.21847993046085 sublanda[3,0,3] = 0
 R287: landa[3,1] - sublanda[3,1,1] - 4 s[3,1,0] >= -3
 R288: landa[3,1] - sublanda[3,1,1] + 4 s[3,1,0] <= 5
 R289: landa[3,1] - sublanda[3,1,2] - 4 s[3,1,1] >= -2
 R290: landa[3,1] - sublanda[3,1,2] + 4 s[3,1,1] <= 6
 R291: landa[3,1] - sublanda[3,1,3] - 4 s[3,1,2] >= -1
 R292: landa[3,1] - sublanda[3,1,3] + 4 s[3,1,2] <= 7
 R293: sublanda[3,1,0] - s[3,1,0] <= 0
 R294: sublanda[3,1,3] - s[3,1,2] <= 0
 R295: sublanda[3,1,1] - s[3,1,0] - s[3,1,1] <= 0
 R296: sublanda[3,1,2] - s[3,1,1] - s[3,1,2] <= 0
 R297: s[3,1,0] + s[3,1,1] + s[3,1,2] = 1
 R298: sublanda[3,1,0] + sublanda[3,1,1] + sublanda[3,1,2]
   + sublanda[3,1,3] = 1
 seg1: x[3,1,0] - 70.88021962862706 sublanda[3,1,0]
   - 66.90368832729264 sublanda[3,1,1] - 74.03869780949165 sublanda[3,1,2]
   - 80.21640022600778 sublanda[3,1,3] = 0
 seg1: x[3,1,1] - 27.49458368017573 sublanda[3,1,0]
   - 35.33683792792536 sublanda[3,1,1] - 40.47545569594134 sublanda[3,1,2]
   - 34.21847993046085 sublanda[3,1,3] = 0
 u0: landa[4,0] - landa[4,1] + min[4] - max[4] = 0
 u1: min[4] + max[4] = 4
 u2: 4 u[4] + max[4] <= 4
 u3: - 4 u[4] + min[4] <= 0
 R305: dc[4] = 29.41429436351647
 R306: landa[4,0] - sublanda[4,0,1] - 5 s[4,0,0] >= -4
 R307: landa[4,0] - sublanda[4,0,1] + 5 s[4,0,0] <= 6
 R308: landa[4,0] - sublanda[4,0,2] - 5 s[4,0,1] >= -3
 R309: landa[4,0] - sublanda[4,0,2] + 5 s[4,0,1] <= 7
 R310: landa[4,0] - sublanda[4,0,3] - 5 s[4,0,2] >= -2
 R311: landa[4,0] - sublanda[4,0,3] + 5 s[4,0,2] <= 8
 R312: landa[4,0] - sublanda[4,0,4] - 5 s[4,0,3] >= -1
 R313: landa[4,0] - sublanda[4,0,4] + 5 s[4,0,3] <= 9
 R314: sublanda[4,0,0] - s[4,0,0] <= 0
 R315: sublanda[4,0,4] - s[4,0,3] <= 0
 R316: sublanda[4,0,1] - s[4,0,0] - s[4,0,1] <= 0
 R317: sublanda[4,0,2] - s[4,0,1] - s[4,0,2] <= 0
 R318: sublanda[4,0,3] - s[4,0,2] - s[4,0,3] <= 0
 R319: s[4,0,0] + s[4,0,1] + s[4,0,2] + s[4,0,3] = 1
 R320: sublanda[4,0,0] + sublanda[4,0,1] + sublanda[4,0,2]
   + sublanda[4,0,3] + sublanda[4,0,4] = 1
 seg1: x[4,0,0] - 32.18369783455054 sublanda[4,0,0]
   - 32.39994898455421 sublanda[4,0,1] - 39.69572695579116 sublanda[4,0,2]
   - 41.73024446602988 sublanda[4,0,3] - 35.06212104634493 sublanda[4,0,4]
   = 0
 seg1: x[4,0,1] - 16.34257576183445 sublanda[4,0,0]
   - 23.69296894836515 sublanda[4,0,1] - 24.61311477968125 sublanda[4,0,2]
   - 17.54658925032761 sublanda[4,0,3] - 14.44639980187065 sublanda[4,0,4]
   = 0
 R323: landa[4,1] - sublanda[4,1,1] - 5 s[4,1,0] >= -4
 R324: landa[4,1] - sublanda[4,1,1] + 5 s[4,1,0] <= 6
 R325: landa[4,1] - sublanda[4,1,2] - 5 s[4,1,1] >= -3
 R326: landa[4,1] - sublanda[4,1,2] + 5 s[4,1,1] <= 7
 R327: landa[4,1] - sublanda[4,1,3] - 5 s[4,1,2] >= -2
 R328: landa[4,1] - sublanda[4,1,3] + 5 s[4,1,2] <= 8
 R329: landa[4,1] - sublanda[4,1,4] - 5 s[4,1,3] >= -1
 R330: landa[4,1] - sublanda[4,1,4] + 5 s[4,1,3] <= 9
 R331: sublanda[4,1,0] - s[4,1,0] <= 0
 R332: sublanda[4,1,4] - s[4,1,3] <= 0
 R333: sublanda[4,1,1] - s[4,1,0] - s[4,1,1] <= 0
 R334: sublanda[4,1,2] - s[4,1,1] - s[4,1,2] <= 0
 R335: sublanda[4,1,3] - s[4,1,2] - s[4,1,3] <= 0
 R336: s[4,1,0] + s[4,1,1] + s[4,1,2] + s[4,1,3] = 1
 R337: sublanda[4,1,0] + sublanda[4,1,1] + sublanda[4,1,2]
   + sublanda[4,1,3] + sublanda[4,1,4] = 1
 seg1: x[4,1,0] - 32.18369783455054 sublanda[4,1,0]
   - 32.39994898455421 sublanda[4,1,1] - 39.69572695579116 sublanda[4,1,2]
   - 41.73024446602988 sublanda[4,1,3] - 35.06212104634493 sublanda[4,1,4]
   = 0
 seg1: x[4,1,1] - 16.34257576183445 sublanda[4,1,0]
   - 23.69296894836515 sublanda[4,1,1] - 24.61311477968125 sublanda[4,1,2]
   - 17.54658925032761 sublanda[4,1,3] - 14.44639980187065 sublanda[4,1,4]
   = 0
 qc0: [ - dcc[0,1] ^2 + dif[0,1,0] ^2 + dif[0,1,1] ^2 ] <= 0
 qc1: [ - dcc[0,2] ^2 + dif[0,2,0] ^2 + dif[0,2,1] ^2 ] <= 0
 qc2: [ - dcc[0,3] ^2 + dif[0,3,0] ^2 + dif[0,3,1] ^2 ] <= 0
 qc3: [ - dcc[0,4] ^2 + dif[0,4,0] ^2 + dif[0,4,1] ^2 ] <= 0
 qc4: [ - dcc[1,0] ^2 + dif[1,0,0] ^2 + dif[1,0,1] ^2 ] <= 0
 qc5: [ - dcc[1,2] ^2 + dif[1,2,0] ^2 + dif[1,2,1] ^2 ] <= 0
 qc6: [ - dcc[1,3] ^2 + dif[1,3,0] ^2 + dif[1,3,1] ^2 ] <= 0
 qc7: [ - dcc[1,4] ^2 + dif[1,4,0] ^2 + dif[1,4,1] ^2 ] <= 0
 qc8: [ - dcc[2,0] ^2 + dif[2,0,0] ^2 + dif[2,0,1] ^2 ] <= 0
 qc9: [ - dcc[2,1] ^2 + dif[2,1,0] ^2 + dif[2,1,1] ^2 ] <= 0
 qc10: [ - dcc[2,3] ^2 + dif[2,3,0] ^2 + dif[2,3,1] ^2 ] <= 0
 qc11: [ - dcc[2,4] ^2 + dif[2,4,0] ^2 + dif[2,4,1] ^2 ] <= 0
 qc12: [ - dcc[3,0] ^2 + dif[3,0,0] ^2 + dif[3,0,1] ^2 ] <= 0
 qc13: [ - dcc[3,1] ^2 + dif[3,1,0] ^2 + dif[3,1,1] ^2 ] <= 0
 qc14: [ - dcc[3,2] ^2 + dif[3,2,0] ^2 + dif[3,2,1] ^2 ] <= 0
 qc15: [ - dcc[3,4] ^2 + dif[3,4,0] ^2 + dif[3,4,1] ^2 ] <= 0
 qc16: [ - dcc[4,0] ^2 + dif[4,0,0] ^2 + dif[4,0,1] ^2 ] <= 0
 qc17: [ - dcc[4,1] ^2 + dif[4,1,0] ^2 + dif[4,1,1] ^2 ] <= 0
 qc18: [ - dcc[4,2] ^2 + dif[4,2,0] ^2 + dif[4,2,1] ^2 ] <= 0
 qc19: [ - dcc[4,3] ^2 + dif[4,3,0] ^2 + dif[4,3,1] ^2 ] <= 0
Bounds
 sublanda[0,0,0] <= 1
 sublanda[0,1,0] <= 1
 sublanda[0,0,1] <= 1
 sublanda[0,1,1] <= 1
 sublanda[1,0,0] <= 1
 sublanda[1,1,0] <= 1
 sublanda[1,0,1] <= 1
 sublanda[1,1,1] <= 1
 sublanda[1,0,2] <= 1
 sublanda[1,1,2] <= 1
 sublanda[1,0,3] <= 1
 sublanda[1,1,3] <= 1
 sublanda[2,0,0] <= 1
 sublanda[2,1,0] <= 1
 sublanda[2,0,1] <= 1
 sublanda[2,1,1] <= 1
 sublanda[2,0,2] <= 1
 sublanda[2,1,2] <= 1
 sublanda[3,0,0] <= 1
 sublanda[3,1,0] <= 1
 sublanda[3,0,1] <= 1
 sublanda[3,1,1] <= 1
 sublanda[3,0,2] <= 1
 sublanda[3,1,2] <= 1
 sublanda[3,0,3] <= 1
 sublanda[3,1,3] <= 1
 sublanda[4,0,0] <= 1
 sublanda[4,1,0] <= 1
 sublanda[4,0,1] <= 1
 sublanda[4,1,1] <= 1
 sublanda[4,0,2] <= 1
 sublanda[4,1,2] <= 1
 sublanda[4,0,3] <= 1
 sublanda[4,1,3] <= 1
 sublanda[4,0,4] <= 1
 sublanda[4,1,4] <= 1
 sc[0] <= 4
 sc[1] <= 4
 sc[2] <= 4
 sc[3] <= 4
 sc[4] <= 4
Binaries
 z[0,1] z[0,2] z[0,3] z[0,4] z[1,0] z[1,2] z[1,3] z[1,4] z[2,0] z[2,1]
 z[2,3] z[2,4] z[3,0] z[3,1] z[3,2] z[3,4] z[4,0] z[4,1] z[4,2] z[4,3]
 s[0,0,0] s[0,1,0] s[1,0,0] s[1,1,0] s[1,0,1] s[1,1,1] s[1,0,2] s[1,1,2]
 s[2,0,0] s[2,1,0] s[2,0,1] s[2,1,1] s[3,0,0] s[3,1,0] s[3,0,1] s[3,1,1]
 s[3,0,2] s[3,1,2] s[4,0,0] s[4,1,0] s[4,0,1] s[4,1,1] s[4,0,2] s[4,1,2]
 s[4,0,3] s[4,1,3] u[0] u[1] u[2] u[3] u[4]
End
